(set-logic QF_NRA)
(set-info :source |Benchmarks generated from hycomp (https://es-static.fbk.eu/tools/hycomp/). BMC instances of non-linear hybrid automata taken from: Alessandro Cimatti, Sergio Mover, Stefano Tonetta, A quantifier-free SMT encoding of non-linear hybrid automata, FMCAD 2012 and Alessandro Cimatti, Sergio Mover, Stefano Tonetta, Quantier-free encoding of invariants for Hybrid Systems, Formal Methods in System Design. This instance solves a BMC problem of depth 1 and uses the quantifier free encoding with equivalences and lemmas encoding. Contacts: Sergio Mover (mover@fbk.eu), Stefano Tonetta (tonettas@fbk.eu), Alessandro Cimatti (cimatti@fbk.eu).|)
(set-info :smt-lib-version 2.0)
(set-info :category "industrial")
(set-info :status unsat)
;; MathSAT API call trace
;; generated on Mon Mar 19 10:47:01 2012
(declare-fun b.counter.2__AT1 () Bool)
(declare-fun b.counter.2__AT0 () Bool)
(declare-fun b.time__AT0 () Real)
(declare-fun b.speed_y__AT0 () Real)
(declare-fun b.EVENT.1__AT0 () Bool)
(declare-fun b.time__AT1 () Real)
(declare-fun b.y__AT1 () Real)
(declare-fun b.counter.0__AT1 () Bool)
(declare-fun b.delta__AT0 () Real)
(declare-fun b.counter.3__AT1 () Bool)
(declare-fun b.y__AT0 () Real)
(declare-fun b.event_is_timed__AT0 () Bool)
(declare-fun b.counter.0__AT0 () Bool)
(declare-fun b.counter.1__AT0 () Bool)
(declare-fun b.counter.3__AT0 () Bool)
(declare-fun b.delta__AT1 () Real)
(declare-fun b.EVENT.0__AT1 () Bool)
(declare-fun b.EVENT.1__AT1 () Bool)
(declare-fun b.EVENT.0__AT0 () Bool)
(declare-fun b.speed_y__AT1 () Real)
(declare-fun b.event_is_timed__AT1 () Bool)
(declare-fun speed_loss__AT0 () Real)
(declare-fun b.counter.1__AT1 () Bool)
(assert (let ((.def_276 (<= 0.0 b.speed_y__AT1)))
(let ((.def_270 (* (- 49.0) b.delta__AT1)))
(let ((.def_271 (* 5.0 b.speed_y__AT1)))
(let ((.def_273 (+ .def_271 .def_270)))
(let ((.def_274 (<= 0.0 .def_273)))
(let ((.def_275 (not .def_274)))
(let ((.def_307 (or .def_275 .def_276)))
(let ((.def_290 (<= .def_273 0.0 )))
(let ((.def_288 (<= b.speed_y__AT1 0.0 )))
(let ((.def_289 (not .def_288)))
(let ((.def_306 (or .def_289 .def_290)))
(let ((.def_308 (and .def_306 .def_307)))
(let ((.def_303 (and .def_288 .def_290)))
(let ((.def_302 (and .def_274 .def_276)))
(let ((.def_304 (or .def_302 .def_303)))
(let ((.def_262 (* b.speed_y__AT1 b.delta__AT1)))
(let ((.def_263 (* 10.0 .def_262)))
(let ((.def_260 (* b.delta__AT1 b.delta__AT1)))
(let ((.def_261 (* (- 49.0) .def_260)))
(let ((.def_264 (+ .def_261 .def_263)))
(let ((.def_265 (* 10.0 b.y__AT1)))
(let ((.def_267 (+ .def_265 .def_264)))
(let ((.def_282 (<= .def_267 0.0 )))
(let ((.def_296 (not .def_282)))
(let ((.def_280 (<= b.y__AT1 0.0 )))
(let ((.def_297 (or .def_280 .def_296)))
(let ((.def_250 (<= 0.0 b.y__AT1)))
(let ((.def_294 (not .def_250)))
(let ((.def_268 (<= 0.0 .def_267)))
(let ((.def_295 (or .def_268 .def_294)))
(let ((.def_298 (and .def_295 .def_297)))
(let ((.def_291 (not .def_290)))
(let ((.def_292 (or .def_289 .def_291)))
(let ((.def_293 (not .def_292)))
(let ((.def_299 (or .def_293 .def_298)))
(let ((.def_284 (not .def_268)))
(let ((.def_285 (or .def_250 .def_284)))
(let ((.def_281 (not .def_280)))
(let ((.def_283 (or .def_281 .def_282)))
(let ((.def_286 (and .def_283 .def_285)))
(let ((.def_277 (not .def_276)))
(let ((.def_278 (or .def_275 .def_277)))
(let ((.def_279 (not .def_278)))
(let ((.def_287 (or .def_279 .def_286)))
(let ((.def_300 (and .def_287 .def_299)))
(let ((.def_269 (and .def_250 .def_268)))
(let ((.def_301 (and .def_269 .def_300)))
(let ((.def_305 (and .def_301 .def_304)))
(let ((.def_309 (and .def_305 .def_308)))
(let ((.def_61 (<= speed_loss__AT0 (/ 1 2))))
(let ((.def_58 (<= (/ 1 10) speed_loss__AT0)))
(let ((.def_62 (and .def_58 .def_61)))
(let ((.def_310 (and .def_62 .def_309)))
(let ((.def_32 (not b.counter.0__AT0)))
(let ((.def_30 (not b.counter.1__AT0)))
(let ((.def_33 (and .def_30 .def_32)))
(let ((.def_255 (or .def_33 b.counter.3__AT0)))
(let ((.def_38 (not b.counter.3__AT0)))
(let ((.def_35 (not b.counter.2__AT0)))
(let ((.def_36 (and .def_33 .def_35)))
(let ((.def_254 (or .def_36 .def_38)))
(let ((.def_256 (and .def_254 .def_255)))
(let ((.def_251 (and .def_62 .def_250)))
(let ((.def_247 (not b.EVENT.0__AT1)))
(let ((.def_245 (not b.EVENT.1__AT1)))
(let ((.def_248 (or .def_245 .def_247)))
(let ((.def_6 (not b.counter.0__AT1)))
(let ((.def_4 (not b.counter.1__AT1)))
(let ((.def_238 (or .def_4 .def_6)))
(let ((.def_242 (or b.counter.3__AT1 .def_238)))
(let ((.def_239 (or b.counter.2__AT1 .def_238)))
(let ((.def_9 (not b.counter.2__AT1)))
(let ((.def_237 (or .def_6 .def_9)))
(let ((.def_240 (and .def_237 .def_239)))
(let ((.def_12 (not b.counter.3__AT1)))
(let ((.def_241 (or .def_12 .def_240)))
(let ((.def_243 (and .def_241 .def_242)))
(let ((.def_249 (and .def_243 .def_248)))
(let ((.def_252 (and .def_249 .def_251)))
(let ((.def_232 (<= 0.0 b.delta__AT0)))
(let ((.def_51 (not b.EVENT.0__AT0)))
(let ((.def_49 (not b.EVENT.1__AT0)))
(let ((.def_178 (and .def_49 .def_51)))
(let ((.def_182 (not .def_178)))
(let ((.def_233 (or .def_182 .def_232)))
(let ((.def_234 (or b.EVENT.1__AT0 .def_233)))
(let ((.def_170 (= b.counter.0__AT1 b.counter.0__AT0)))
(let ((.def_168 (= b.counter.1__AT1 b.counter.1__AT0)))
(let ((.def_166 (= b.counter.2__AT1 b.counter.2__AT0)))
(let ((.def_165 (= b.counter.3__AT1 b.counter.3__AT0)))
(let ((.def_167 (and .def_165 .def_166)))
(let ((.def_169 (and .def_167 .def_168)))
(let ((.def_171 (and .def_169 .def_170)))
(let ((.def_229 (or .def_171 .def_182)))
(let ((.def_230 (or b.EVENT.1__AT0 .def_229)))
(let ((.def_218 (* (- 10.0) b.y__AT1)))
(let ((.def_72 (* b.speed_y__AT0 b.delta__AT0)))
(let ((.def_73 (* 10.0 .def_72)))
(let ((.def_221 (+ .def_73 .def_218)))
(let ((.def_68 (* b.delta__AT0 b.delta__AT0)))
(let ((.def_71 (* (- 49.0) .def_68)))
(let ((.def_222 (+ .def_71 .def_221)))
(let ((.def_75 (* 10.0 b.y__AT0)))
(let ((.def_223 (+ .def_75 .def_222)))
(let ((.def_224 (= .def_223 0.0 )))
(let ((.def_213 (* (- 5.0) b.speed_y__AT1)))
(let ((.def_80 (* (- 49.0) b.delta__AT0)))
(let ((.def_214 (+ .def_80 .def_213)))
(let ((.def_82 (* 5.0 b.speed_y__AT0)))
(let ((.def_215 (+ .def_82 .def_214)))
(let ((.def_216 (= .def_215 0.0 )))
(let ((.def_225 (and .def_216 .def_224)))
(let ((.def_226 (or .def_182 .def_225)))
(let ((.def_176 (= b.y__AT0 b.y__AT1)))
(let ((.def_164 (= b.speed_y__AT0 b.speed_y__AT1)))
(let ((.def_209 (and .def_164 .def_176)))
(let ((.def_206 (= b.delta__AT0 0.0 )))
(let ((.def_207 (and .def_178 .def_206)))
(let ((.def_208 (not .def_207)))
(let ((.def_210 (or .def_208 .def_209)))
(let ((.def_211 (or b.EVENT.1__AT0 .def_210)))
(let ((.def_227 (and .def_211 .def_226)))
(let ((.def_188 (= b.time__AT0 b.time__AT1)))
(let ((.def_200 (and .def_176 .def_188)))
(let ((.def_201 (and .def_164 .def_200)))
(let ((.def_202 (and .def_171 .def_201)))
(let ((.def_203 (or .def_49 .def_202)))
(let ((.def_191 (* (- 1.0) b.time__AT1)))
(let ((.def_194 (+ b.delta__AT0 .def_191)))
(let ((.def_195 (+ b.time__AT0 .def_194)))
(let ((.def_196 (= .def_195 0.0 )))
(let ((.def_197 (or .def_182 .def_196)))
(let ((.def_198 (or b.EVENT.1__AT0 .def_197)))
(let ((.def_189 (or .def_178 .def_188)))
(let ((.def_190 (or b.EVENT.1__AT0 .def_189)))
(let ((.def_199 (and .def_190 .def_198)))
(let ((.def_204 (and .def_199 .def_203)))
(let ((.def_184 (= .def_182 b.event_is_timed__AT1)))
(let ((.def_181 (= b.event_is_timed__AT0 .def_178)))
(let ((.def_185 (and .def_181 .def_184)))
(let ((.def_172 (and .def_164 .def_171)))
(let ((.def_123 (= b.y__AT0 0.0 )))
(let ((.def_87 (<= 0.0 b.speed_y__AT0)))
(let ((.def_88 (not .def_87)))
(let ((.def_124 (and .def_88 .def_123)))
(let ((.def_173 (or .def_124 .def_172)))
(let ((.def_141 (or .def_6 b.counter.0__AT0)))
(let ((.def_140 (or b.counter.0__AT1 .def_32)))
(let ((.def_142 (and .def_140 .def_141)))
(let ((.def_143 (and .def_4 .def_142)))
(let ((.def_144 (or b.counter.1__AT0 .def_143)))
(let ((.def_139 (or b.counter.1__AT1 .def_30)))
(let ((.def_145 (and .def_139 .def_144)))
(let ((.def_156 (and .def_9 .def_145)))
(let ((.def_157 (or b.counter.2__AT0 .def_156)))
(let ((.def_151 (and .def_4 .def_32)))
(let ((.def_152 (or b.counter.1__AT0 .def_151)))
(let ((.def_153 (and .def_139 .def_152)))
(let ((.def_154 (and b.counter.2__AT1 .def_153)))
(let ((.def_155 (or .def_35 .def_154)))
(let ((.def_158 (and .def_155 .def_157)))
(let ((.def_159 (and b.counter.3__AT1 .def_158)))
(let ((.def_160 (or b.counter.3__AT0 .def_159)))
(let ((.def_146 (and b.counter.2__AT1 .def_145)))
(let ((.def_147 (or b.counter.2__AT0 .def_146)))
(let ((.def_135 (or b.counter.1__AT1 b.counter.1__AT0)))
(let ((.def_133 (and .def_4 b.counter.0__AT1)))
(let ((.def_134 (or .def_30 .def_133)))
(let ((.def_136 (and .def_134 .def_135)))
(let ((.def_137 (and .def_9 .def_136)))
(let ((.def_138 (or .def_35 .def_137)))
(let ((.def_148 (and .def_138 .def_147)))
(let ((.def_149 (and .def_12 .def_148)))
(let ((.def_150 (or .def_38 .def_149)))
(let ((.def_161 (and .def_150 .def_160)))
(let ((.def_128 (* (- 1.0) speed_loss__AT0)))
(let ((.def_129 (+ 1.0 .def_128)))
(let ((.def_127 (* (- 1.0) b.speed_y__AT0)))
(let ((.def_130 (* .def_127 .def_129)))
(let ((.def_132 (= .def_130 b.speed_y__AT1)))
(let ((.def_162 (and .def_132 .def_161)))
(let ((.def_125 (not .def_124)))
(let ((.def_163 (or .def_125 .def_162)))
(let ((.def_174 (and .def_163 .def_173)))
(let ((.def_177 (and .def_174 .def_176)))
(let ((.def_179 (or .def_177 .def_178)))
(let ((.def_180 (or b.EVENT.1__AT0 .def_179)))
(let ((.def_186 (and .def_180 .def_185)))
(let ((.def_205 (and .def_186 .def_204)))
(let ((.def_228 (and .def_205 .def_227)))
(let ((.def_231 (and .def_228 .def_230)))
(let ((.def_235 (and .def_231 .def_234)))
(let ((.def_236 (and .def_49 .def_235)))
(let ((.def_253 (and .def_236 .def_252)))
(let ((.def_257 (and .def_253 .def_256)))
(let ((.def_84 (+ .def_82 .def_80)))
(let ((.def_85 (<= 0.0 .def_84)))
(let ((.def_86 (not .def_85)))
(let ((.def_118 (or .def_86 .def_87)))
(let ((.def_101 (<= .def_84 0.0 )))
(let ((.def_99 (<= b.speed_y__AT0 0.0 )))
(let ((.def_100 (not .def_99)))
(let ((.def_117 (or .def_100 .def_101)))
(let ((.def_119 (and .def_117 .def_118)))
(let ((.def_114 (and .def_99 .def_101)))
(let ((.def_113 (and .def_85 .def_87)))
(let ((.def_115 (or .def_113 .def_114)))
(let ((.def_74 (+ .def_71 .def_73)))
(let ((.def_77 (+ .def_75 .def_74)))
(let ((.def_93 (<= .def_77 0.0 )))
(let ((.def_107 (not .def_93)))
(let ((.def_91 (<= b.y__AT0 0.0 )))
(let ((.def_108 (or .def_91 .def_107)))
(let ((.def_54 (<= 0.0 b.y__AT0)))
(let ((.def_105 (not .def_54)))
(let ((.def_78 (<= 0.0 .def_77)))
(let ((.def_106 (or .def_78 .def_105)))
(let ((.def_109 (and .def_106 .def_108)))
(let ((.def_102 (not .def_101)))
(let ((.def_103 (or .def_100 .def_102)))
(let ((.def_104 (not .def_103)))
(let ((.def_110 (or .def_104 .def_109)))
(let ((.def_95 (not .def_78)))
(let ((.def_96 (or .def_54 .def_95)))
(let ((.def_92 (not .def_91)))
(let ((.def_94 (or .def_92 .def_93)))
(let ((.def_97 (and .def_94 .def_96)))
(let ((.def_89 (or .def_86 .def_88)))
(let ((.def_90 (not .def_89)))
(let ((.def_98 (or .def_90 .def_97)))
(let ((.def_111 (and .def_98 .def_110)))
(let ((.def_79 (and .def_54 .def_78)))
(let ((.def_112 (and .def_79 .def_111)))
(let ((.def_116 (and .def_112 .def_115)))
(let ((.def_120 (and .def_116 .def_119)))
(let ((.def_121 (and .def_62 .def_120)))
(let ((.def_63 (and .def_54 .def_62)))
(let ((.def_52 (or .def_49 .def_51)))
(let ((.def_42 (or .def_30 .def_32)))
(let ((.def_46 (or b.counter.3__AT0 .def_42)))
(let ((.def_43 (or b.counter.2__AT0 .def_42)))
(let ((.def_41 (or .def_32 .def_35)))
(let ((.def_44 (and .def_41 .def_43)))
(let ((.def_45 (or .def_38 .def_44)))
(let ((.def_47 (and .def_45 .def_46)))
(let ((.def_53 (and .def_47 .def_52)))
(let ((.def_64 (and .def_53 .def_63)))
(let ((.def_39 (and .def_36 .def_38)))
(let ((.def_27 (= b.speed_y__AT0 0.0 )))
(let ((.def_24 (= b.y__AT0 10.0 )))
(let ((.def_19 (= b.time__AT0 0.0 )))
(let ((.def_21 (and .def_19 b.event_is_timed__AT0)))
(let ((.def_25 (and .def_21 .def_24)))
(let ((.def_28 (and .def_25 .def_27)))
(let ((.def_40 (and .def_28 .def_39)))
(let ((.def_65 (and .def_40 .def_64)))
(let ((.def_7 (and .def_4 .def_6)))
(let ((.def_14 (or .def_7 b.counter.3__AT1)))
(let ((.def_10 (and .def_7 .def_9)))
(let ((.def_13 (or .def_10 .def_12)))
(let ((.def_15 (and .def_13 .def_14)))
(let ((.def_16 (not .def_15)))
(let ((.def_66 (and .def_16 .def_65)))
(let ((.def_122 (and .def_66 .def_121)))
(let ((.def_258 (and .def_122 .def_257)))
(let ((.def_311 (and .def_258 .def_310)))
.def_311)))))))))))))))))))))))))))))))))))))))))))))))))))))))))))))))))))))))))))))))))))))))))))))))))))))))))))))))))))))))))))))))))))))))))))))))))))))))))))))))))))))))))))))))))))))))))))))))))))))))))))))))))))))))))))))))))))))))))))))))))))))))))))))))))))))))))))
(check-sat)
(exit)
